
Gurobi 12.0.2 (win64) logging started Fri Oct 24 16:55:56 2025

Set parameter LogFile to value "C:\Ioana\_uni\honours\slp\algorithm\Main_files\results\fixing paracetamol degradation (updated model)\Task_004_Sample002_irr_gurobi.log"
Gurobi Optimizer version 12.0.2 build v12.0.2rc0 (win64 - Windows 11.0 (26100.2))

CPU model: Intel(R) Core(TM) Ultra 5 125H, instruction set [SSE2|AVX|AVX2]
Thread count: 14 physical cores, 18 logical processors, using up to 18 threads

Non-default parameters:
TimeLimit  2200

Optimize a model with 47228 rows, 34502 columns and 146698 nonzeros
Model fingerprint: 0xe8f28797
Variable types: 17256 continuous, 17246 integer (17246 binary)
Coefficient statistics:
  Matrix range     [1e-04, 8e+04]
  Objective range  [1e-04, 9e-01]
  Bounds range     [1e+00, 1e+03]
  RHS range        [1e+00, 1e+00]
Presolve removed 30773 rows and 21547 columns
Presolve time: 0.51s
Presolved: 16455 rows, 12955 columns, 54694 nonzeros
Variable types: 6409 continuous, 6546 integer (6546 binary)
Found heuristic solution: objective 9.0834467

Root relaxation: objective 8.951317e-01, 2922 iterations, 0.32 seconds (0.51 work units)

    Nodes    |    Current Node    |     Objective Bounds      |     Work
 Expl Unexpl |  Obj  Depth IntInf | Incumbent    BestBd   Gap | It/Node Time

     0     0    0.89513    0    2    9.08345    0.89513  90.1%     -    0s
H    0     0                       1.7746616    0.89513  49.6%     -    0s
H    0     0                       0.9264543    0.89513  3.38%     -    0s
     0     0    0.89513    0    2    0.92645    0.89513  3.38%     -    0s

Explored 1 nodes (2922 simplex iterations) in 0.99 seconds (0.99 work units)
Thread count was 18 (of 18 available processors)

Solution count 3: 0.926454 1.77466 9.08345 

Optimal solution found (tolerance 1.00e-04)
Best objective 9.264543103470e-01, best bound 9.264543103470e-01, gap 0.0000%
